c This Formular is generated by mcnf
c
c    horn? no 
c    forced? no 
c    mixed sat? no 
c    clause length = 3 
c
p cnf 20  91 
 12 19 20 0
-14 10 -9 0
9 -7 19 0
-18 -10 6 0
-14 4 -13 0
20 -5 13 0
-18 14 -13 0
-19 1 -2 0
-7 12 8 0
13 -4 -8 0
-5 16 15 0
-4 2 -16 0
11 5 -16 0
14 18 1 0
17 11 13 0
6 3 17 0
6 -8 -7 0
15 -11 16 0
3 -11 19 0
9 -12 17 0
4 19 -6 0
%
0

61 67 87 88 9 98 12 76 86 50 99 25 73 23 73 24 67 3 55 9
